NAME : TSP Generated Input7
COMMENT : 7-city problem (Randomly generated)
TYPE : TSP
DIMENSION : 7
EDGE_WEIGHT_TYPE : EUC_2D
NODE_COORD_SECTION
1 62.50 88.91
2 22.60 42.05
3 17.91 83.89
4 33.99 65.58
5 79.28 69.74
6 53.94 72.45
7 47.22 57.90
EOF

